p cnf 18 45
1 2 3 0
-1 2 0
1 -2 0
-4 0
-3 5 0
-6 7 0
8 7 0
6 -8 -7 0
7 -1 0
-2 8 0
2 -8 0
-6 0
-5 -9 0
-10 -4 -9 0
-10 4 9 0
10 4 -9 0
10 -4 9 0
11 12 0
-9 12 0
-11 9 -12 0
11 13 0
4 13 0
-11 -4 -13 0
-14 13 -12 0
-14 -13 12 0
14 -13 -12 0
14 13 12 0
14 -10 0
15 -9 0
15 9 0
-16 -4 -9 0
-16 4 9 0
16 4 -9 0
16 -4 9 0
-10 17 0
16 17 0
10 -16 -17 0
17 -15 0
-18 4 9 0
-18 -4 -9 0
18 -4 9 0
18 4 -9 0
16 -18 0
-4 -9 0
4 9 0
